Minimize
-1 l18915 + -1 l18913 + -1 l18903 + -1 l18911
 + -1 l18909 + -1 l33078 + -1 l33095 + -1 l18905
 + -1 l5998 + -1 l18901 + -1 l18907 + 1 u18915
 + 1 u18913 + 1 u18903 + 1 u18911 + 1 u18909
 + 1 u33078 + 1 u33095 + 1 u18905 + 1 u5998
 + 1 u18901 + 1 u18907

Subject To
C0: 1 x18915 + -1 x18913 <= -803
C1: 1 x18915 + -1 x18903 <= -803
C2: 1 x18915 + -1 x18911 <= -803
C3: 1 x18915 + -1 x18909 <= -803
C4: 1 x18915 + -1 x18905 <= -803
C5: 1 x18915 + -1 x5998 <= -803
C6: 1 x18915 + -1 x18901 <= -803
C7: 1 x18915 + -1 x18907 <= -803
C8: 1 x18913 + -1 x18903 <= -803
C9: 1 x18913 + -1 x18911 <= -803
C10: 1 x18913 + -1 x18909 <= -803
C11: 1 x18913 + -1 x5998 <= -803
C12: 1 x18913 + -1 x18901 <= -803
C13: 1 x18913 + -1 x18907 <= -803
C14: 1 x18903 + -1 x18901 <= -803
C15: 1 x18903 + -1 x18907 <= -803
C16: 1 x18911 + -1 x5998 <= -803
C17: 1 x18911 + -1 x18901 <= -803
C18: 1 x18911 + -1 x18907 <= -803
C19: 1 x18909 + -1 x5998 <= -803
C20: 1 x18909 + -1 x18907 <= -803
C21: 1 x33078 + -1 x33095 <= -56
C22: 1 x33078 + -1 x18905 <= -56
C23: 1 x33078 + -1 x5998 <= -56
C24: 1 x33095 + -1 x18905 <= -287
C25: -1 x18915 + 1 l18915 <= 0
C26: -1 x18915 + 1 u18915 >= 0
C27: -1 x18913 + 1 l18913 <= 0
C28: -1 x18913 + 1 u18913 >= 0
C29: -1 x18903 + 1 l18903 <= 0
C30: -1 x18903 + 1 u18903 >= 0
C31: -1 x18911 + 1 l18911 <= 0
C32: -1 x18911 + 1 u18911 >= 0
C33: -1 x18909 + 1 l18909 <= 0
C34: -1 x18909 + 1 u18909 >= 0
C35: -1 x33078 + 1 l33078 <= 0
C36: -1 x33078 + 1 u33078 >= 0
C37: -1 x33095 + 1 l33095 <= 0
C38: -1 x33095 + 1 u33095 >= 0
C39: -1 x18905 + 1 l18905 <= 0
C40: -1 x18905 + 1 u18905 >= 0
C41: -1 x5998 + 1 l5998 <= 0
C42: -1 x5998 + 1 u5998 >= 0
C43: -1 x18901 + 1 l18901 <= 0
C44: -1 x18901 + 1 u18901 >= 0
C45: -1 x18907 + 1 l18907 <= 0
C46: -1 x18907 + 1 u18907 >= 0
Bounds
0 <= x18915 <= 3301
0 <= x18913 <= 3301
0 <= x18903 <= 3301
0 <= x18911 <= 3301
0 <= x18909 <= 3301
0 <= x33078 <= 4048
0 <= x33095 <= 3817
0 <= x18905 <= 3301
0 <= x5998 <= 3301
0 <= x18901 <= 3301
0 <= x18907 <= 3301
0 <= l18915 <= 0
0 <= l18913 <= 1226
0 <= l18903 <= 1573
0 <= l18911 <= 1836
0 <= l18909 <= 2178
0 <= l33078 <= 2306
0 <= l33095 <= 2343
0 <= l18905 <= 2525
0 <= l5998 <= 3066
0 <= l18901 <= 3111
0 <= l18907 <= 3301
0 <= u18915 <= 4104
1226 <= u18913 <= 4104
1573 <= u18903 <= 4104
1836 <= u18911 <= 4104
2178 <= u18909 <= 4104
2306 <= u33078 <= 4104
2343 <= u33095 <= 4104
2525 <= u18905 <= 4104
3066 <= u5998 <= 4104
3111 <= u18901 <= 4104
3301 <= u18907 <= 4104
Generals
End
