Minimize
-1 l18915 + -1 l18913 + -1 l18903 + -1 l18911
 + -1 l18909 + -1 l33078 + -1 l33095 + -1 l18905
 + -1 l5998 + -1 l18901 + -1 l18907 + 1 u18915
 + 1 u18913 + 1 u18903 + 1 u18911 + 1 u18909
 + 1 u33078 + 1 u33095 + 1 u18905 + 1 u5998
 + 1 u18901 + 1 u18907

Subject To
C0: -1 x18915 + 1 x33078 <= -191
C1: -1 x18915 + 1 x33095 <= -470
C2: -1 x18913 + 1 x33078 <= -191
C3: -1 x18913 + 1 x33095 <= -470
C4: -1 x18913 + 1 x18905 <= -596
C5: -1 x18903 + 1 x18911 <= -596
C6: -1 x18903 + 1 x18909 <= -596
C7: -1 x18903 + 1 x33078 <= -191
C8: -1 x18903 + 1 x33095 <= -470
C9: -1 x18903 + 1 x18905 <= -596
C10: -1 x18903 + 1 x5998 <= -596
C11: -1 x18911 + 1 x18909 <= -596
C12: -1 x18911 + 1 x33078 <= -191
C13: -1 x18911 + 1 x33095 <= -470
C14: -1 x18911 + 1 x18905 <= -596
C15: -1 x18909 + 1 x33078 <= -191
C16: -1 x18909 + 1 x33095 <= -470
C17: -1 x18909 + 1 x18905 <= -596
C18: 1 x18909 + -1 x18901 <= -596
C19: 1 x33078 + -1 x18901 <= -191
C20: 1 x33078 + -1 x18907 <= -191
C21: 1 x33095 + -1 x5998 <= -470
C22: 1 x33095 + -1 x18901 <= -470
C23: 1 x33095 + -1 x18907 <= -470
C24: 1 x18905 + -1 x5998 <= -596
C25: 1 x18905 + -1 x18901 <= -596
C26: 1 x18905 + -1 x18907 <= -596
C27: 1 x5998 + -1 x18901 <= -596
C28: 1 x5998 + -1 x18907 <= -596
C29: -1 x18901 + 1 x18907 <= -596
C30: -1 x18915 + 1 l18915 <= 0
C31: -1 x18915 + 1 u18915 >= 0
C32: -1 x18913 + 1 l18913 <= 0
C33: -1 x18913 + 1 u18913 >= 0
C34: -1 x18903 + 1 l18903 <= 0
C35: -1 x18903 + 1 u18903 >= 0
C36: -1 x18911 + 1 l18911 <= 0
C37: -1 x18911 + 1 u18911 >= 0
C38: -1 x18909 + 1 l18909 <= 0
C39: -1 x18909 + 1 u18909 >= 0
C40: -1 x33078 + 1 l33078 <= 0
C41: -1 x33078 + 1 u33078 >= 0
C42: -1 x33095 + 1 l33095 <= 0
C43: -1 x33095 + 1 u33095 >= 0
C44: -1 x18905 + 1 l18905 <= 0
C45: -1 x18905 + 1 u18905 >= 0
C46: -1 x5998 + 1 l5998 <= 0
C47: -1 x5998 + 1 u5998 >= 0
C48: -1 x18901 + 1 l18901 <= 0
C49: -1 x18901 + 1 u18901 >= 0
C50: -1 x18907 + 1 l18907 <= 0
C51: -1 x18907 + 1 u18907 >= 0
Bounds
0 <= x18915 <= 2446
0 <= x18913 <= 2446
0 <= x18903 <= 2446
0 <= x18911 <= 2446
0 <= x18909 <= 2446
0 <= x33078 <= 2851
0 <= x33095 <= 2572
0 <= x18905 <= 2446
0 <= x5998 <= 2446
0 <= x18901 <= 2446
0 <= x18907 <= 2446
0 <= l18915 <= 2240
0 <= l18913 <= 1938
0 <= l18903 <= 2446
0 <= l18911 <= 1884
0 <= l18909 <= 1366
0 <= l33078 <= 201
0 <= l33095 <= 3
0 <= l18905 <= 636
0 <= l5998 <= 233
0 <= l18901 <= 2446
0 <= l18907 <= 1081
2240 <= u18915 <= 3043
1938 <= u18913 <= 3043
2446 <= u18903 <= 3043
1884 <= u18911 <= 3043
1366 <= u18909 <= 3043
201 <= u33078 <= 3043
3 <= u33095 <= 3043
636 <= u18905 <= 3043
233 <= u5998 <= 3043
2446 <= u18901 <= 3043
1081 <= u18907 <= 3043
Generals
End
